662520
1,72,63,32,140,71,118,49,67,207,39,74,157,83,135,162,229,133,155,112,27,169,40,81,130,102,62,55,87,35,94,108,50,151,28,78,215,75,205,34,37,192,179,196,107,89,116,161,184,101,166,96,91,9,68,6,203,38,224,33,129,153,217,21,4,142,170,150,171,186,90,109,228,88,146,12,187,103,180,121,106,219,190,99,202,105,175,54,56,18,92,53,100,216,66,24,141,128,41,222,77,158,82,149,115,2,230,104,212,45,204,172,168,93,213,59,221,52,132,80,182,61,25,123,85,167,79,95,57,76,139,58,11,143,197,214,46,125,227,19,134,111,48,225,47,17,223,176,13,220,30,97,194,165,14,110,120,8,15,138,3,208,159,23,69,226,177,51,122,152,191,114,198,200,10,201,65,154,164,174,29,84,193,119,195,188,124,131,148,173,181,136,206,218,86,70,126,209,73,113,160,42,98,199,178,31,43,147,127,163,16,189,185,60,137,64,44,5,156,211,145,144,26,22,117,20,183,210,7,36,1